\ Model FlowOPT
\ LP format - for model browsing. Use MPS format to capture full model detail.
Maximize
  0.53027426502179 z[0,1] + 0.5507182565478099 z[1,1]
   + 0.2455422865413333 z[2,1] + 0.2629516998358077 z[3,1]
   + 0.29865104378472 z[4,1] + 0.1734668679981189 z[5,1]
   + 0.7529853755230366 z[6,1] + 0.6468545098714124 z[7,1]
   + 0.7449287160805235 z[8,1] + 1.75946259838332 z[9,1]
   + 0.2172460282087722 z[10,1] + 0.4797869484416333 z[11,1]
   + 0.4774847809633167 z[12,1] + 0.2916702845434711 z[13,1]
   + 0.1692047961218733 z[14,1] + 0.4687951079052612 z[15,1]
   + 0.3475998498261778 z[16,1] + 0.3526681158399467 z[17,1]
   + 0.2352131451536067 z[18,1] + 0.4607930725796278 z[19,1]
   + 0.36297034071176 z[20,1] + 0.7674257008211168 z[21,1]
   + 0.5202840892143801 z[22,1] + 0.5772939699220222 z[23,1]
   + 4.0123758933273 z[24,1] + 0.348138410480129 z[25,1]
   + 0.7014630511839056 z[26,1] + 0.2534422773073411 z[27,1]
   + 0.26779254141576 z[28,1] + 0.4137717795456256 z[29,1]
   + 0.34207570610668 z[30,1] + 0.3568313546642712 z[31,1]
   + 0.4354665710245811 z[32,1] + 0.5228638919708678 z[33,1]
   + 0.4726868041882556 z[34,1] + 0.6716147112203623 z[35,1]
   + 0.5614059648391233 z[36,1] + 0.4681926019260845 z[37,1]
   + 0.5082029733139722 z[38,1] + 0.7058164927932989 z[39,1]
   + 0.3347094768420322 z[40,1] + 0.1974323557160411 z[41,1]
   + 0.4497737846373122 z[42,1] + 0.4909864799773655 z[43,1]
   + 0.4281603003024412 z[44,1] + 0.5462437818509611 z[45,1]
   + 0.386936698558599 z[46,1] + 0.0931301896919313 z[47,1]
   + 0.2102629247867222 z[48,1] + 0.4147547591436011 z[49,1]
   + 0.1428309457574956 z[50,1] + 3.81060030008689 z[51,1]
   + 0.6616996183906166 z[52,1] + 0.4977805095419011 z[53,1]
   + 0.2784379670683578 z[54,1] + 0.7249501103719322 z[55,1]
   + 0.5679558741595778 z[56,1] + 0.475397427788281 z[57,1]
   + 0.3205607863107978 z[58,1] + 0.5735516580216967 z[59,1]
   + 0.2595942894778266 z[60,1] + 0.2725075941861511 z[61,1]
   + 0.5466260151425711 z[62,1] + 0.5244760810055611 z[63,1]
   + 0.0772581816408663 z[64,1] + 2.79031504085913 z[65,1]
   + 0.1913543845414978 z[66,1] + 0.4268486468043567 z[67,1]
   + 0.6282372951306155 z[68,1] + 0.4910942841315011 z[69,1]
   + 0.1210604022260833 z[70,1] + 0.4683702103984189 z[71,1]
   + 0.6242802167526246 z[72,1] + 0.3794803150786167 z[73,1]
   + 5.36996445564915 z[74,1] + 0.4570541168671944 z[75,1]
   + 0.6009323727347523 z[76,1] + 0.4215233833357456 z[77,1]
   + 0.2926294092551389 z[78,1] + 0.2506725151871377 z[79,1]
   + 0.43018321158648 z[80,1] + 3.00676485002715 z[81,1]
   + 0.1664905058037489 z[82,1] + 0.3896743633881611 z[83,1]
   + 3.970364924570779 z[84,1] + 0.1764338425085378 z[85,1]
   + 0.4711842966254989 z[86,1] + 0.4165969597373578 z[87,1]
   + 0.0837749735920863 z[88,1] + 0.4386669504514945 z[89,1]
   + 0.6480421844431802 z[90,1] + 5.41033913861633 z[91,1]
   + 0.5275102806485634 z[92,1] + 0.3311938027753433 z[93,1]
   + 1.111111111111111 z[94,1] + 0.6543382156215578 z[95,1]
   + 0.5336717301048123 z[96,1] + 0.3321748899275122 z[97,1]
   + 0.4044292436080867 z[98,1]
Subject To
 R0: p[1] = 1
 R1: - w[1,1] + zeta[0,1] <= 0
 R2: - w[1,0] + zeta[1,1] <= 0
 R3: - w[1,0] + zeta[2,1] <= 0
 R4: - w[1,0] + zeta[3,1] <= 0
 R5: - w[1,0] + zeta[4,1] <= 0
 R6: - w[1,0] + zeta[5,1] <= 0
 R7: - w[1,0] + zeta[6,1] <= 0
 R8: - w[1,1] + zeta[7,1] <= 0
 R9: - w[1,1] + zeta[8,1] <= 0
 R10: - w[1,1] + zeta[9,1] <= 0
 R11: - w[1,0] + zeta[10,1] <= 0
 R12: - w[1,1] + zeta[11,1] <= 0
 R13: - w[1,1] + zeta[12,1] <= 0
 R14: - w[1,0] + zeta[13,1] <= 0
 R15: - w[1,1] + zeta[14,1] <= 0
 R16: - w[1,0] + zeta[15,1] <= 0
 R17: - w[1,0] + zeta[16,1] <= 0
 R18: - w[1,1] + zeta[17,1] <= 0
 R19: - w[1,0] + zeta[18,1] <= 0
 R20: - w[1,0] + zeta[19,1] <= 0
 R21: - w[1,0] + zeta[20,1] <= 0
 R22: - w[1,1] + zeta[21,1] <= 0
 R23: - w[1,1] + zeta[22,1] <= 0
 R24: - w[1,1] + zeta[23,1] <= 0
 R25: - w[1,0] + zeta[24,1] <= 0
 R26: - w[1,0] + zeta[25,1] <= 0
 R27: - w[1,0] + zeta[26,1] <= 0
 R28: - w[1,1] + zeta[27,1] <= 0
 R29: - w[1,0] + zeta[28,1] <= 0
 R30: - w[1,0] + zeta[29,1] <= 0
 R31: - w[1,1] + zeta[30,1] <= 0
 R32: - w[1,0] + zeta[31,1] <= 0
 R33: - w[1,1] + zeta[32,1] <= 0
 R34: - w[1,0] + zeta[33,1] <= 0
 R35: - w[1,0] + zeta[34,1] <= 0
 R36: - w[1,1] + zeta[35,1] <= 0
 R37: - w[1,1] + zeta[36,1] <= 0
 R38: - w[1,1] + zeta[37,1] <= 0
 R39: - w[1,1] + zeta[38,1] <= 0
 R40: - w[1,1] + zeta[39,1] <= 0
 R41: - w[1,0] + zeta[40,1] <= 0
 R42: - w[1,0] + zeta[41,1] <= 0
 R43: - w[1,0] + zeta[42,1] <= 0
 R44: - w[1,0] + zeta[43,1] <= 0
 R45: - w[1,0] + zeta[44,1] <= 0
 R46: - w[1,0] + zeta[45,1] <= 0
 R47: - w[1,0] + zeta[46,1] <= 0
 R48: - w[1,0] + zeta[47,1] <= 0
 R49: - w[1,0] + zeta[48,1] <= 0
 R50: - w[1,0] + zeta[49,1] <= 0
 R51: - w[1,1] + zeta[50,1] <= 0
 R52: - w[1,0] + zeta[51,1] <= 0
 R53: - w[1,1] + zeta[52,1] <= 0
 R54: - w[1,0] + zeta[53,1] <= 0
 R55: - w[1,1] + zeta[54,1] <= 0
 R56: - w[1,1] + zeta[55,1] <= 0
 R57: - w[1,0] + zeta[56,1] <= 0
 R58: - w[1,0] + zeta[57,1] <= 0
 R59: - w[1,0] + zeta[58,1] <= 0
 R60: - w[1,1] + zeta[59,1] <= 0
 R61: - w[1,1] + zeta[60,1] <= 0
 R62: - w[1,1] + zeta[61,1] <= 0
 R63: - w[1,1] + zeta[62,1] <= 0
 R64: - w[1,0] + zeta[63,1] <= 0
 R65: - w[1,0] + zeta[64,1] <= 0
 R66: - w[1,1] + zeta[65,1] <= 0
 R67: - w[1,1] + zeta[66,1] <= 0
 R68: - w[1,0] + zeta[67,1] <= 0
 R69: - w[1,1] + zeta[68,1] <= 0
 R70: - w[1,1] + zeta[69,1] <= 0
 R71: - w[1,0] + zeta[70,1] <= 0
 R72: - w[1,1] + zeta[71,1] <= 0
 R73: - w[1,1] + zeta[72,1] <= 0
 R74: - w[1,0] + zeta[73,1] <= 0
 R75: - w[1,0] + zeta[74,1] <= 0
 R76: - w[1,1] + zeta[75,1] <= 0
 R77: - w[1,0] + zeta[76,1] <= 0
 R78: - w[1,1] + zeta[77,1] <= 0
 R79: - w[1,0] + zeta[78,1] <= 0
 R80: - w[1,0] + zeta[79,1] <= 0
 R81: - w[1,0] + zeta[80,1] <= 0
 R82: - w[1,1] + zeta[81,1] <= 0
 R83: - w[1,0] + zeta[82,1] <= 0
 R84: - w[1,1] + zeta[83,1] <= 0
 R85: - w[1,1] + zeta[84,1] <= 0
 R86: - w[1,0] + zeta[85,1] <= 0
 R87: - w[1,1] + zeta[86,1] <= 0
 R88: - w[1,1] + zeta[87,1] <= 0
 R89: - w[1,0] + zeta[88,1] <= 0
 R90: - w[1,1] + zeta[89,1] <= 0
 R91: - w[1,1] + zeta[90,1] <= 0
 R92: - w[1,0] + zeta[91,1] <= 0
 R93: - w[1,0] + zeta[92,1] <= 0
 R94: - w[1,1] + zeta[93,1] <= 0
 R95: - w[1,1] + zeta[94,1] <= 0
 R96: - w[1,1] + zeta[95,1] <= 0
 R97: - w[1,1] + zeta[96,1] <= 0
 R98: - w[1,0] + zeta[97,1] <= 0
 R99: - w[1,1] + zeta[98,1] <= 0
 R100: - w[1,0] + zeta[99,1] <= 0
 R101: - p[1] + w[1,1] + w[1,0] = 0
 R102: zeta[0,1] - z[0,1] = 0
 R103: zeta[1,1] - z[1,1] = 0
 R104: zeta[2,1] - z[2,1] = 0
 R105: zeta[3,1] - z[3,1] = 0
 R106: zeta[4,1] - z[4,1] = 0
 R107: zeta[5,1] - z[5,1] = 0
 R108: zeta[6,1] - z[6,1] = 0
 R109: zeta[7,1] - z[7,1] = 0
 R110: zeta[8,1] - z[8,1] = 0
 R111: zeta[9,1] - z[9,1] = 0
 R112: zeta[10,1] - z[10,1] = 0
 R113: zeta[11,1] - z[11,1] = 0
 R114: zeta[12,1] - z[12,1] = 0
 R115: zeta[13,1] - z[13,1] = 0
 R116: zeta[14,1] - z[14,1] = 0
 R117: zeta[15,1] - z[15,1] = 0
 R118: zeta[16,1] - z[16,1] = 0
 R119: zeta[17,1] - z[17,1] = 0
 R120: zeta[18,1] - z[18,1] = 0
 R121: zeta[19,1] - z[19,1] = 0
 R122: zeta[20,1] - z[20,1] = 0
 R123: zeta[21,1] - z[21,1] = 0
 R124: zeta[22,1] - z[22,1] = 0
 R125: zeta[23,1] - z[23,1] = 0
 R126: zeta[24,1] - z[24,1] = 0
 R127: zeta[25,1] - z[25,1] = 0
 R128: zeta[26,1] - z[26,1] = 0
 R129: zeta[27,1] - z[27,1] = 0
 R130: zeta[28,1] - z[28,1] = 0
 R131: zeta[29,1] - z[29,1] = 0
 R132: zeta[30,1] - z[30,1] = 0
 R133: zeta[31,1] - z[31,1] = 0
 R134: zeta[32,1] - z[32,1] = 0
 R135: zeta[33,1] - z[33,1] = 0
 R136: zeta[34,1] - z[34,1] = 0
 R137: zeta[35,1] - z[35,1] = 0
 R138: zeta[36,1] - z[36,1] = 0
 R139: zeta[37,1] - z[37,1] = 0
 R140: zeta[38,1] - z[38,1] = 0
 R141: zeta[39,1] - z[39,1] = 0
 R142: zeta[40,1] - z[40,1] = 0
 R143: zeta[41,1] - z[41,1] = 0
 R144: zeta[42,1] - z[42,1] = 0
 R145: zeta[43,1] - z[43,1] = 0
 R146: zeta[44,1] - z[44,1] = 0
 R147: zeta[45,1] - z[45,1] = 0
 R148: zeta[46,1] - z[46,1] = 0
 R149: zeta[47,1] - z[47,1] = 0
 R150: zeta[48,1] - z[48,1] = 0
 R151: zeta[49,1] - z[49,1] = 0
 R152: zeta[50,1] - z[50,1] = 0
 R153: zeta[51,1] - z[51,1] = 0
 R154: zeta[52,1] - z[52,1] = 0
 R155: zeta[53,1] - z[53,1] = 0
 R156: zeta[54,1] - z[54,1] = 0
 R157: zeta[55,1] - z[55,1] = 0
 R158: zeta[56,1] - z[56,1] = 0
 R159: zeta[57,1] - z[57,1] = 0
 R160: zeta[58,1] - z[58,1] = 0
 R161: zeta[59,1] - z[59,1] = 0
 R162: zeta[60,1] - z[60,1] = 0
 R163: zeta[61,1] - z[61,1] = 0
 R164: zeta[62,1] - z[62,1] = 0
 R165: zeta[63,1] - z[63,1] = 0
 R166: zeta[64,1] - z[64,1] = 0
 R167: zeta[65,1] - z[65,1] = 0
 R168: zeta[66,1] - z[66,1] = 0
 R169: zeta[67,1] - z[67,1] = 0
 R170: zeta[68,1] - z[68,1] = 0
 R171: zeta[69,1] - z[69,1] = 0
 R172: zeta[70,1] - z[70,1] = 0
 R173: zeta[71,1] - z[71,1] = 0
 R174: zeta[72,1] - z[72,1] = 0
 R175: zeta[73,1] - z[73,1] = 0
 R176: zeta[74,1] - z[74,1] = 0
 R177: zeta[75,1] - z[75,1] = 0
 R178: zeta[76,1] - z[76,1] = 0
 R179: zeta[77,1] - z[77,1] = 0
 R180: zeta[78,1] - z[78,1] = 0
 R181: zeta[79,1] - z[79,1] = 0
 R182: zeta[80,1] - z[80,1] = 0
 R183: zeta[81,1] - z[81,1] = 0
 R184: zeta[82,1] - z[82,1] = 0
 R185: zeta[83,1] - z[83,1] = 0
 R186: zeta[84,1] - z[84,1] = 0
 R187: zeta[85,1] - z[85,1] = 0
 R188: zeta[86,1] - z[86,1] = 0
 R189: zeta[87,1] - z[87,1] = 0
 R190: zeta[88,1] - z[88,1] = 0
 R191: zeta[89,1] - z[89,1] = 0
 R192: zeta[90,1] - z[90,1] = 0
 R193: zeta[91,1] - z[91,1] = 0
 R194: zeta[92,1] - z[92,1] = 0
 R195: zeta[93,1] - z[93,1] = 0
 R196: zeta[94,1] - z[94,1] = 0
 R197: zeta[95,1] - z[95,1] = 0
 R198: zeta[96,1] - z[96,1] = 0
 R199: zeta[97,1] - z[97,1] = 0
 R200: zeta[98,1] - z[98,1] = 0
 R201: zeta[99,1] - z[99,1] = 0
Bounds
Binaries
 p[1]
End
